n_nodes = 756;
M = 6701;
n_domains = 18;
domain_link_weights = [|0,6701,6701,358,6701,6701,6701,6701,6701,6701,6701,6701,6701,6701,6701,6701,6701,6701|6701,0,6701,6701,6701,479,344,264,6701,6701,6701,6701,6701,6701,6701,6701,6701,6701|6701,6701,0,6701,6701,6701,6701,6701,6701,972,6701,6701,6701,6701,1788,6701,6701,6701|6701,6701,6701,0,6701,6701,6701,6701,6701,6701,6701,6701,6701,6701,6701,6701,6701,6701|6701,6701,6701,6701,0,364,358,173,6701,6701,6701,6701,6701,6701,6701,6701,6701,6223|6701,6701,6701,6701,6701,0,6701,6701,6701,6701,6701,6701,6701,6701,6701,6701,6701,6701|6701,6701,6701,6701,6701,6701,0,6701,5585,6701,6701,6701,6701,6701,6701,6701,6701,6701|6701,6701,6701,6701,6701,6701,6701,0,6701,6701,6701,6701,6701,6701,6701,6701,6701,6701|6701,6701,6701,6701,6701,6701,6701,6701,0,6701,6701,6701,6701,6701,6701,1148,556,350|6701,6701,6701,6701,6701,6701,6701,6701,6701,0,6701,6701,6701,2562,6701,943,6701,852|6701,6701,6701,6701,6701,6701,6701,6701,6701,6701,0,1141,6701,6701,6701,2795,6701,6701|6701,6701,6701,6701,6701,6701,6701,6701,6701,6701,6701,0,492,6701,6701,2963,6701,3855|6701,6701,6701,6701,6701,6701,6701,6701,6701,6701,6701,6701,0,575,1995,2807,6701,6701|6701,6701,6701,6701,6701,6701,6701,6701,6701,6701,6701,6701,6701,0,1425,6701,6701,6701|6701,6701,6701,6701,6701,6701,6701,6701,6701,6701,6701,6701,6701,6701,0,1291,6701,1872|6701,6701,6701,6701,6701,6701,6701,6701,6701,6701,6701,6701,6701,6701,6701,0,704,916|6701,6701,6701,6701,6701,6701,6701,6701,6701,6701,6701,6701,6701,6701,6701,6701,0,6701|6701,6701,6701,6701,6701,6701,6701,6701,6701,6701,6701,6701,6701,6701,6701,6701,6701,0|];
num_node_links = 1507;
node_links = [|1,3|1,4|2,6|2,7|2,8|3,10|3,15|5,6|5,7|5,8|5,18|7,9|9,16|9,17|9,18|10,14|10,16|10,18|11,12|11,16|12,13|12,16|12,18|13,14|13,15|13,16|14,15|15,16|15,18|16,17|16,18|1,19|19,1|1,60|60,1|1,84|84,1|1,86|86,1|1,87|87,1|1,103|103,1|1,118|118,1|1,147|147,1|1,157|157,1|1,194|194,1|1,205|205,1|1,242|242,1|1,251|251,1|1,271|271,1|1,281|281,1|1,288|288,1|1,303|303,1|1,325|325,1|1,334|334,1|1,346|346,1|1,363|363,1|1,368|368,1|1,387|387,1|1,388|388,1|1,397|397,1|1,416|416,1|1,419|419,1|1,467|467,1|1,486|486,1|1,494|494,1|1,506|506,1|1,516|516,1|1,526|526,1|1,608|608,1|1,637|637,1|1,655|655,1|1,661|661,1|1,689|689,1|1,712|712,1|1,739|739,1|1,754|754,1|2,20|20,2|2,45|45,2|2,59|59,2|2,91|91,2|2,152|152,2|2,169|169,2|2,196|196,2|2,215|215,2|2,216|216,2|2,225|225,2|2,247|247,2|2,259|259,2|2,336|336,2|2,345|345,2|2,352|352,2|2,362|362,2|2,364|364,2|2,394|394,2|2,413|413,2|2,456|456,2|2,478|478,2|2,485|485,2|2,504|504,2|2,511|511,2|2,515|515,2|2,541|541,2|2,553|553,2|2,565|565,2|2,568|568,2|2,582|582,2|2,590|590,2|2,620|620,2|2,630|630,2|2,635|635,2|2,638|638,2|2,639|639,2|2,688|688,2|2,706|706,2|2,729|729,2|2,734|734,2|2,751|751,2|3,21|21,3|3,39|39,3|3,58|58,3|3,73|73,3|3,111|111,3|3,113|113,3|3,139|139,3|3,162|162,3|3,191|191,3|3,238|238,3|3,250|250,3|3,269|269,3|3,276|276,3|3,280|280,3|3,310|310,3|3,320|320,3|3,324|324,3|3,359|359,3|3,403|403,3|3,431|431,3|3,438|438,3|3,441|441,3|3,450|450,3|3,454|454,3|3,465|465,3|3,484|484,3|3,498|498,3|3,577|577,3|3,588|588,3|3,589|589,3|3,595|595,3|3,597|597,3|3,609|609,3|3,649|649,3|3,650|650,3|3,653|653,3|3,669|669,3|3,683|683,3|3,694|694,3|3,705|705,3|3,735|735,3|4,22|22,4|4,76|76,4|4,89|89,4|4,129|129,4|4,145|145,4|4,153|153,4|4,182|182,4|4,203|203,4|4,209|209,4|4,214|214,4|4,224|224,4|4,243|243,4|4,273|273,4|4,289|289,4|4,315|315,4|4,322|322,4|4,353|353,4|4,390|390,4|4,407|407,4|4,421|421,4|4,425|425,4|4,442|442,4|4,508|508,4|4,514|514,4|4,542|542,4|4,585|585,4|4,593|593,4|4,596|596,4|4,601|601,4|4,612|612,4|4,633|633,4|4,676|676,4|4,677|677,4|4,680|680,4|4,682|682,4|4,693|693,4|4,702|702,4|4,714|714,4|4,722|722,4|4,725|725,4|4,730|730,4|5,23|23,5|5,38|38,5|5,42|42,5|5,70|70,5|5,81|81,5|5,97|97,5|5,115|115,5|5,141|141,5|5,170|170,5|5,172|172,5|5,266|266,5|5,302|302,5|5,330|330,5|5,377|377,5|5,398|398,5|5,423|423,5|5,430|430,5|5,449|449,5|5,463|463,5|5,469|469,5|5,472|472,5|5,489|489,5|5,490|490,5|5,499|499,5|5,503|503,5|5,531|531,5|5,533|533,5|5,548|548,5|5,563|563,5|5,571|571,5|5,587|587,5|5,594|594,5|5,616|616,5|5,627|627,5|5,632|632,5|5,640|640,5|5,647|647,5|5,648|648,5|5,672|672,5|5,684|684,5|5,692|692,5|6,24|24,6|6,47|47,6|6,48|48,6|6,51|51,6|6,53|53,6|6,61|61,6|6,77|77,6|6,133|133,6|6,174|174,6|6,181|181,6|6,193|193,6|6,210|210,6|6,219|219,6|6,295|295,6|6,298|298,6|6,318|318,6|6,355|355,6|6,371|371,6|6,383|383,6|6,400|400,6|6,422|422,6|6,455|455,6|6,471|471,6|6,505|505,6|6,510|510,6|6,513|513,6|6,518|518,6|6,544|544,6|6,560|560,6|6,564|564,6|6,566|566,6|6,572|572,6|6,605|605,6|6,606|606,6|6,618|618,6|6,628|628,6|6,660|660,6|6,678|678,6|6,715|715,6|6,720|720,6|6,741|741,6|7,25|25,7|7,67|67,7|7,85|85,7|7,100|100,7|7,101|101,7|7,112|112,7|7,131|131,7|7,158|158,7|7,161|161,7|7,195|195,7|7,199|199,7|7,264|264,7|7,292|292,7|7,293|293,7|7,326|326,7|7,332|332,7|7,360|360,7|7,367|367,7|7,396|396,7|7,439|439,7|7,457|457,7|7,460|460,7|7,474|474,7|7,476|476,7|7,512|512,7|7,530|530,7|7,549|549,7|7,592|592,7|7,599|599,7|7,614|614,7|7,615|615,7|7,634|634,7|7,652|652,7|7,658|658,7|7,666|666,7|7,709|709,7|7,717|717,7|7,726|726,7|7,733|733,7|7,755|755,7|7,756|756,7|8,26|26,8|8,46|46,8|8,50|50,8|8,64|64,8|8,66|66,8|8,123|123,8|8,146|146,8|8,160|160,8|8,165|165,8|8,179|179,8|8,184|184,8|8,200|200,8|8,207|207,8|8,240|240,8|8,244|244,8|8,262|262,8|8,304|304,8|8,305|305,8|8,386|386,8|8,389|389,8|8,391|391,8|8,409|409,8|8,410|410,8|8,420|420,8|8,424|424,8|8,453|453,8|8,540|540,8|8,546|546,8|8,550|550,8|8,581|581,8|8,607|607,8|8,619|619,8|8,624|624,8|8,656|656,8|8,695|695,8|8,703|703,8|8,716|716,8|8,737|737,8|8,740|740,8|8,746|746,8|8,747|747,8|9,27|27,9|9,71|71,9|9,80|80,9|9,83|83,9|9,96|96,9|9,98|98,9|9,121|121,9|9,150|150,9|9,155|155,9|9,167|167,9|9,171|171,9|9,176|176,9|9,178|178,9|9,208|208,9|9,230|230,9|9,234|234,9|9,245|245,9|9,246|246,9|9,253|253,9|9,257|257,9|9,261|261,9|9,274|274,9|9,282|282,9|9,287|287,9|9,311|311,9|9,319|319,9|9,338|338,9|9,350|350,9|9,351|351,9|9,361|361,9|9,401|401,9|9,406|406,9|9,411|411,9|9,445|445,9|9,534|534,9|9,580|580,9|9,584|584,9|9,602|602,9|9,625|625,9|9,699|699,9|9,753|753,9|10,28|28,10|10,43|43,10|10,78|78,10|10,114|114,10|10,127|127,10|10,177|177,10|10,201|201,10|10,218|218,10|10,220|220,10|10,233|233,10|10,248|248,10|10,272|272,10|10,307|307,10|10,317|317,10|10,341|341,10|10,365|365,10|10,376|376,10|10,378|378,10|10,412|412,10|10,417|417,10|10,426|426,10|10,437|437,10|10,443|443,10|10,446|446,10|10,448|448,10|10,473|473,10|10,477|477,10|10,479|479,10|10,495|495,10|10,500|500,10|10,502|502,10|10,527|527,10|10,575|575,10|10,576|576,10|10,591|591,10|10,631|631,10|10,641|641,10|10,651|651,10|10,679|679,10|10,721|721,10|10,736|736,10|11,29|29,11|11,68|68,11|11,82|82,11|11,94|94,11|11,104|104,11|11,106|106,11|11,142|142,11|11,143|143,11|11,159|159,11|11,164|164,11|11,183|183,11|11,187|187,11|11,221|221,11|11,222|222,11|11,226|226,11|11,268|268,11|11,284|284,11|11,300|300,11|11,321|321,11|11,331|331,11|11,339|339,11|11,347|347,11|11,349|349,11|11,372|372,11|11,380|380,11|11,408|408,11|11,459|459,11|11,481|481,11|11,488|488,11|11,509|509,11|11,537|537,11|11,555|555,11|11,578|578,11|11,604|604,11|11,621|621,11|11,629|629,11|11,636|636,11|11,643|643,11|11,646|646,11|11,681|681,11|11,708|708,11|12,30|30,12|12,52|52,12|12,75|75,12|12,88|88,12|12,93|93,12|12,95|95,12|12,116|116,12|12,117|117,12|12,124|124,12|12,132|132,12|12,154|154,12|12,166|166,12|12,186|186,12|12,192|192,12|12,198|198,12|12,231|231,12|12,241|241,12|12,252|252,12|12,265|265,12|12,309|309,12|12,314|314,12|12,337|337,12|12,357|357,12|12,393|393,12|12,418|418,12|12,436|436,12|12,487|487,12|12,493|493,12|12,525|525,12|12,532|532,12|12,538|538,12|12,543|543,12|12,613|613,12|12,622|622,12|12,659|659,12|12,674|674,12|12,685|685,12|12,686|686,12|12,696|696,12|12,744|744,12|12,745|745,12|13,31|31,13|13,44|44,13|13,55|55,13|13,65|65,13|13,69|69,13|13,99|99,13|13,102|102,13|13,105|105,13|13,108|108,13|13,109|109,13|13,125|125,13|13,135|135,13|13,136|136,13|13,140|140,13|13,151|151,13|13,185|185,13|13,189|189,13|13,227|227,13|13,291|291,13|13,335|335,13|13,348|348,13|13,382|382,13|13,392|392,13|13,458|458,13|13,466|466,13|13,480|480,13|13,491|491,13|13,497|497,13|13,551|551,13|13,552|552,13|13,561|561,13|13,573|573,13|13,574|574,13|13,583|583,13|13,670|670,13|13,700|700,13|13,707|707,13|13,718|718,13|13,724|724,13|13,732|732,13|13,748|748,13|14,32|32,14|14,57|57,14|14,63|63,14|14,90|90,14|14,110|110,14|14,119|119,14|14,120|120,14|14,134|134,14|14,173|173,14|14,204|204,14|14,217|217,14|14,223|223,14|14,239|239,14|14,254|254,14|14,301|301,14|14,306|306,14|14,308|308,14|14,356|356,14|14,402|402,14|14,415|415,14|14,428|428,14|14,432|432,14|14,444|444,14|14,451|451,14|14,470|470,14|14,483|483,14|14,496|496,14|14,501|501,14|14,517|517,14|14,545|545,14|14,547|547,14|14,554|554,14|14,600|600,14|14,626|626,14|14,657|657,14|14,663|663,14|14,697|697,14|14,713|713,14|14,728|728,14|14,738|738,14|14,749|749,14|15,33|33,15|15,41|41,15|15,79|79,15|15,107|107,15|15,149|149,15|15,175|175,15|15,202|202,15|15,211|211,15|15,228|228,15|15,237|237,15|15,249|249,15|15,260|260,15|15,263|263,15|15,278|278,15|15,279|279,15|15,290|290,15|15,312|312,15|15,343|343,15|15,366|366,15|15,369|369,15|15,370|370,15|15,427|427,15|15,434|434,15|15,461|461,15|15,519|519,15|15,521|521,15|15,522|522,15|15,528|528,15|15,529|529,15|15,536|536,15|15,556|556,15|15,557|557,15|15,570|570,15|15,579|579,15|15,586|586,15|15,598|598,15|15,645|645,15|15,668|668,15|15,701|701,15|15,742|742,15|15,743|743,15|16,34|34,16|16,74|74,16|16,163|163,16|16,197|197,16|16,212|212,16|16,232|232,16|16,235|235,16|16,255|255,16|16,286|286,16|16,296|296,16|16,299|299,16|16,313|313,16|16,344|344,16|16,354|354,16|16,379|379,16|16,381|381,16|16,385|385,16|16,395|395,16|16,405|405,16|16,414|414,16|16,429|429,16|16,433|433,16|16,435|435,16|16,464|464,16|16,520|520,16|16,524|524,16|16,539|539,16|16,558|558,16|16,559|559,16|16,569|569,16|16,623|623,16|16,654|654,16|16,662|662,16|16,673|673,16|16,690|690,16|16,710|710,16|16,719|719,16|16,723|723,16|16,727|727,16|16,750|750,16|16,752|752,16|17,35|35,17|17,37|37,17|17,40|40,17|17,49|49,17|17,54|54,17|17,62|62,17|17,72|72,17|17,128|128,17|17,130|130,17|17,138|138,17|17,144|144,17|17,168|168,17|17,188|188,17|17,270|270,17|17,277|277,17|17,283|283,17|17,297|297,17|17,316|316,17|17,327|327,17|17,358|358,17|17,373|373,17|17,374|374,17|17,384|384,17|17,399|399,17|17,404|404,17|17,447|447,17|17,452|452,17|17,462|462,17|17,507|507,17|17,523|523,17|17,535|535,17|17,603|603,17|17,611|611,17|17,617|617,17|17,642|642,17|17,644|644,17|17,664|664,17|17,665|665,17|17,687|687,17|17,691|691,17|17,711|711,17|18,36|36,18|18,56|56,18|18,92|92,18|18,122|122,18|18,126|126,18|18,137|137,18|18,148|148,18|18,156|156,18|18,180|180,18|18,190|190,18|18,206|206,18|18,213|213,18|18,229|229,18|18,236|236,18|18,256|256,18|18,258|258,18|18,267|267,18|18,275|275,18|18,285|285,18|18,294|294,18|18,323|323,18|18,328|328,18|18,329|329,18|18,333|333,18|18,340|340,18|18,342|342,18|18,375|375,18|18,440|440,18|18,468|468,18|18,475|475,18|18,482|482,18|18,492|492,18|18,562|562,18|18,567|567,18|18,610|610,18|18,667|667,18|18,671|671,18|18,675|675,18|18,698|698,18|18,704|704,18|18,731|731,18|];
nodes = [|1,9,0,0,0,0,1,1|2,9,0,0,0,0,1,2|3,9,0,0,0,0,1,3|4,9,0,0,0,0,1,4|5,9,0,0,0,0,1,5|6,9,0,0,0,0,1,6|7,9,0,0,0,0,1,7|8,9,0,0,0,0,1,8|9,9,0,0,0,0,1,9|10,9,0,0,0,0,1,10|11,9,0,0,0,0,1,11|12,9,0,0,0,0,1,12|13,9,0,0,0,0,1,13|14,9,0,0,0,0,1,14|15,9,0,0,0,0,1,15|16,9,0,0,0,0,1,16|17,9,0,0,0,0,1,17|18,9,0,0,0,0,1,18|19,10,0,0,0,0,1,1|20,10,0,0,0,0,1,2|21,10,0,0,0,0,1,3|22,10,0,0,0,0,1,4|23,10,0,0,0,0,1,5|24,10,0,0,0,0,1,6|25,10,0,0,0,0,1,7|26,10,0,0,0,0,1,8|27,10,0,0,0,0,1,9|28,10,0,0,0,0,1,10|29,10,0,0,0,0,1,11|30,10,0,0,0,0,1,12|31,10,0,0,0,0,1,13|32,10,0,0,0,0,1,14|33,10,0,0,0,0,1,15|34,10,0,0,0,0,1,16|35,10,0,0,0,0,1,17|36,10,0,0,0,0,1,18|37,5,0,0,0,0,1,17|38,2,0,0,0,0,1,5|39,2,0,0,0,0,1,3|40,4,0,0,0,0,1,17|41,4,0,0,0,0,1,15|42,1,0,0,0,0,1,5|43,1,0,0,0,0,1,10|44,4,0,0,0,0,1,13|45,1,0,0,0,0,1,2|46,2,0,0,0,0,1,8|47,3,0,0,0,0,1,6|48,2,0,0,0,0,1,6|49,3,0,0,0,0,1,17|50,5,0,0,0,0,1,8|51,1,0,0,0,0,1,6|52,4,0,0,0,0,1,12|53,1,0,0,0,0,1,6|54,3,0,0,0,0,1,17|55,2,0,0,0,0,1,13|56,1,0,0,0,0,1,18|57,2,0,0,0,0,1,14|58,4,0,0,0,0,1,3|59,4,0,0,0,0,1,2|60,5,0,0,0,0,1,1|61,2,0,0,0,0,1,6|62,5,0,0,0,0,1,17|63,2,0,0,0,0,1,14|64,4,0,0,0,0,1,8|65,1,0,0,0,0,1,13|66,3,0,0,0,0,1,8|67,3,0,0,0,0,1,7|68,5,0,0,0,0,1,11|69,1,0,0,0,0,1,13|70,4,0,0,0,0,1,5|71,1,0,0,0,0,1,9|72,2,0,0,0,0,1,17|73,5,0,0,0,0,1,3|74,2,0,0,0,0,1,16|75,4,0,0,0,0,1,12|76,4,0,0,0,0,1,4|77,4,0,0,0,0,1,6|78,5,0,0,0,0,1,10|79,3,0,0,0,0,1,15|80,1,0,0,0,0,1,9|81,5,0,0,0,0,1,5|82,2,0,0,0,0,1,11|83,5,0,0,0,0,1,9|84,5,0,0,0,0,1,1|85,5,0,0,0,0,1,7|86,2,0,0,0,0,1,1|87,1,0,0,0,0,1,1|88,1,0,0,0,0,1,12|89,2,0,0,0,0,1,4|90,3,0,0,0,0,1,14|91,3,0,0,0,0,1,2|92,1,0,0,0,0,1,18|93,3,0,0,0,0,1,12|94,1,0,0,0,0,1,11|95,3,0,0,0,0,1,12|96,2,0,0,0,0,1,9|97,5,0,0,0,0,1,5|98,1,0,0,0,0,1,9|99,1,0,0,0,0,1,13|100,5,0,0,0,0,1,7|101,4,0,0,0,0,1,7|102,1,0,0,0,0,1,13|103,4,0,0,0,0,1,1|104,5,0,0,0,0,1,11|105,2,0,0,0,0,1,13|106,3,0,0,0,0,1,11|107,5,0,0,0,0,1,15|108,2,0,0,0,0,1,13|109,5,0,0,0,0,1,13|110,3,0,0,0,0,1,14|111,4,0,0,0,0,1,3|112,5,0,0,0,0,1,7|113,1,0,0,0,0,1,3|114,1,0,0,0,0,1,10|115,5,0,0,0,0,1,5|116,4,0,0,0,0,1,12|117,4,0,0,0,0,1,12|118,1,0,0,0,0,1,1|119,3,0,0,0,0,1,14|120,1,0,0,0,0,1,14|121,5,0,0,0,0,1,9|122,4,0,0,0,0,1,18|123,4,0,0,0,0,1,8|124,3,0,0,0,0,1,12|125,4,0,0,0,0,1,13|126,3,0,0,0,0,1,18|127,3,0,0,0,0,1,10|128,1,0,0,0,0,1,17|129,5,0,0,0,0,1,4|130,4,0,0,0,0,1,17|131,5,0,0,0,0,1,7|132,4,0,0,0,0,1,12|133,1,0,0,0,0,1,6|134,2,0,0,0,0,1,14|135,1,0,0,0,0,1,13|136,4,0,0,0,0,1,13|137,5,0,0,0,0,1,18|138,1,0,0,0,0,1,17|139,5,0,0,0,0,1,3|140,1,0,0,0,0,1,13|141,1,0,0,0,0,1,5|142,2,0,0,0,0,1,11|143,3,0,0,0,0,1,11|144,4,0,0,0,0,1,17|145,1,0,0,0,0,1,4|146,1,0,0,0,0,1,8|147,2,0,0,0,0,1,1|148,2,0,0,0,0,1,18|149,3,0,0,0,0,1,15|150,5,0,0,0,0,1,9|151,1,0,0,0,0,1,13|152,1,0,0,0,0,1,2|153,2,0,0,0,0,1,4|154,5,0,0,0,0,1,12|155,5,0,0,0,0,1,9|156,3,0,0,0,0,1,18|157,2,0,0,0,0,1,1|158,4,0,0,0,0,1,7|159,5,0,0,0,0,1,11|160,4,0,0,0,0,1,8|161,4,0,0,0,0,1,7|162,4,0,0,0,0,1,3|163,3,0,0,0,0,1,16|164,5,0,0,0,0,1,11|165,5,0,0,0,0,1,8|166,2,0,0,0,0,1,12|167,4,0,0,0,0,1,9|168,1,0,0,0,0,1,17|169,1,0,0,0,0,1,2|170,1,0,0,0,0,1,5|171,2,0,0,0,0,1,9|172,3,0,0,0,0,1,5|173,3,0,0,0,0,1,14|174,3,0,0,0,0,1,6|175,2,0,0,0,0,1,15|176,5,0,0,0,0,1,9|177,3,0,0,0,0,1,10|178,4,0,0,0,0,1,9|179,2,0,0,0,0,1,8|180,3,0,0,0,0,1,18|181,5,0,0,0,0,1,6|182,3,0,0,0,0,1,4|183,4,0,0,0,0,1,11|184,2,0,0,0,0,1,8|185,2,0,0,0,0,1,13|186,2,0,0,0,0,1,12|187,4,0,0,0,0,1,11|188,2,0,0,0,0,1,17|189,5,0,0,0,0,1,13|190,4,0,0,0,0,1,18|191,3,0,0,0,0,1,3|192,3,0,0,0,0,1,12|193,1,0,0,0,0,1,6|194,4,0,0,0,0,1,1|195,3,0,0,0,0,1,7|196,5,0,0,0,0,1,2|197,1,0,0,0,0,1,16|198,4,0,0,0,0,1,12|199,5,0,0,0,0,1,7|200,3,0,0,0,0,1,8|201,2,0,0,0,0,1,10|202,3,0,0,0,0,1,15|203,4,0,0,0,0,1,4|204,5,0,0,0,0,1,14|205,2,0,0,0,0,1,1|206,3,0,0,0,0,1,18|207,5,0,0,0,0,1,8|208,2,0,0,0,0,1,9|209,1,0,0,0,0,1,4|210,5,0,0,0,0,1,6|211,4,0,0,0,0,1,15|212,1,0,0,0,0,1,16|213,1,0,0,0,0,1,18|214,3,0,0,0,0,1,4|215,3,0,0,0,0,1,2|216,4,0,0,0,0,1,2|217,2,0,0,0,0,1,14|218,4,0,0,0,0,1,10|219,1,0,0,0,0,1,6|220,5,0,0,0,0,1,10|221,4,0,0,0,0,1,11|222,3,0,0,0,0,1,11|223,2,0,0,0,0,1,14|224,3,0,0,0,0,1,4|225,3,0,0,0,0,1,2|226,3,0,0,0,0,1,11|227,3,0,0,0,0,1,13|228,3,0,0,0,0,1,15|229,3,0,0,0,0,1,18|230,3,0,0,0,0,1,9|231,1,0,0,0,0,1,12|232,5,0,0,0,0,1,16|233,2,0,0,0,0,1,10|234,2,0,0,0,0,1,9|235,4,0,0,0,0,1,16|236,2,0,0,0,0,1,18|237,2,0,0,0,0,1,15|238,5,0,0,0,0,1,3|239,5,0,0,0,0,1,14|240,1,0,0,0,0,1,8|241,5,0,0,0,0,1,12|242,2,0,0,0,0,1,1|243,4,0,0,0,0,1,4|244,4,0,0,0,0,1,8|245,1,0,0,0,0,1,9|246,1,0,0,0,0,1,9|247,4,0,0,0,0,1,2|248,1,0,0,0,0,1,10|249,2,0,0,0,0,1,15|250,3,0,0,0,0,1,3|251,3,0,0,0,0,1,1|252,2,0,0,0,0,1,12|253,1,0,0,0,0,1,9|254,3,0,0,0,0,1,14|255,4,0,0,0,0,1,16|256,4,0,0,0,0,1,18|257,2,0,0,0,0,1,9|258,2,0,0,0,0,1,18|259,5,0,0,0,0,1,2|260,4,0,0,0,0,1,15|261,2,0,0,0,0,1,9|262,5,0,0,0,0,1,8|263,1,0,0,0,0,1,15|264,1,0,0,0,0,1,7|265,4,0,0,0,0,1,12|266,5,0,0,0,0,1,5|267,4,0,0,0,0,1,18|268,5,0,0,0,0,1,11|269,5,0,0,0,0,1,3|270,5,0,0,0,0,1,17|271,3,0,0,0,0,1,1|272,3,0,0,0,0,1,10|273,5,0,0,0,0,1,4|274,3,0,0,0,0,1,9|275,5,0,0,0,0,1,18|276,2,0,0,0,0,1,3|277,1,0,0,0,0,1,17|278,4,0,0,0,0,1,15|279,2,0,0,0,0,1,15|280,1,0,0,0,0,1,3|281,4,0,0,0,0,1,1|282,5,0,0,0,0,1,9|283,1,0,0,0,0,1,17|284,3,0,0,0,0,1,11|285,2,0,0,0,0,1,18|286,1,0,0,0,0,1,16|287,2,0,0,0,0,1,9|288,1,0,0,0,0,1,1|289,5,0,0,0,0,1,4|290,2,0,0,0,0,1,15|291,4,0,0,0,0,1,13|292,4,0,0,0,0,1,7|293,1,0,0,0,0,1,7|294,2,0,0,0,0,1,18|295,3,0,0,0,0,1,6|296,3,0,0,0,0,1,16|297,5,0,0,0,0,1,17|298,3,0,0,0,0,1,6|299,1,0,0,0,0,1,16|300,3,0,0,0,0,1,11|301,2,0,0,0,0,1,14|302,1,0,0,0,0,1,5|303,5,0,0,0,0,1,1|304,3,0,0,0,0,1,8|305,3,0,0,0,0,1,8|306,1,0,0,0,0,1,14|307,5,0,0,0,0,1,10|308,1,0,0,0,0,1,14|309,1,0,0,0,0,1,12|310,4,0,0,0,0,1,3|311,5,0,0,0,0,1,9|312,4,0,0,0,0,1,15|313,4,0,0,0,0,1,16|314,3,0,0,0,0,1,12|315,4,0,0,0,0,1,4|316,2,0,0,0,0,1,17|317,3,0,0,0,0,1,10|318,4,0,0,0,0,1,6|319,4,0,0,0,0,1,9|320,5,0,0,0,0,1,3|321,1,0,0,0,0,1,11|322,4,0,0,0,0,1,4|323,5,0,0,0,0,1,18|324,2,0,0,0,0,1,3|325,2,0,0,0,0,1,1|326,5,0,0,0,0,1,7|327,5,0,0,0,0,1,17|328,2,0,0,0,0,1,18|329,4,0,0,0,0,1,18|330,1,0,0,0,0,1,5|331,4,0,0,0,0,1,11|332,2,0,0,0,0,1,7|333,5,0,0,0,0,1,18|334,1,0,0,0,0,1,1|335,4,0,0,0,0,1,13|336,4,0,0,0,0,1,2|337,3,0,0,0,0,1,12|338,5,0,0,0,0,1,9|339,2,0,0,0,0,1,11|340,4,0,0,0,0,1,18|341,4,0,0,0,0,1,10|342,1,0,0,0,0,1,18|343,4,0,0,0,0,1,15|344,3,0,0,0,0,1,16|345,3,0,0,0,0,1,2|346,2,0,0,0,0,1,1|347,4,0,0,0,0,1,11|348,5,0,0,0,0,1,13|349,1,0,0,0,0,1,11|350,5,0,0,0,0,1,9|351,5,0,0,0,0,1,9|352,5,0,0,0,0,1,2|353,3,0,0,0,0,1,4|354,2,0,0,0,0,1,16|355,5,0,0,0,0,1,6|356,4,0,0,0,0,1,14|357,3,0,0,0,0,1,12|358,5,0,0,0,0,1,17|359,3,0,0,0,0,1,3|360,5,0,0,0,0,1,7|361,4,0,0,0,0,1,9|362,3,0,0,0,0,1,2|363,4,0,0,0,0,1,1|364,2,0,0,0,0,1,2|365,3,0,0,0,0,1,10|366,5,0,0,0,0,1,15|367,1,0,0,0,0,1,7|368,4,0,0,0,0,1,1|369,5,0,0,0,0,1,15|370,5,0,0,0,0,1,15|371,1,0,0,0,0,1,6|372,5,0,0,0,0,1,11|373,3,0,0,0,0,1,17|374,3,0,0,0,0,1,17|375,3,0,0,0,0,1,18|376,5,0,0,0,0,1,10|377,4,0,0,0,0,1,5|378,2,0,0,0,0,1,10|379,1,0,0,0,0,1,16|380,4,0,0,0,0,1,11|381,1,0,0,0,0,1,16|382,1,0,0,0,0,1,13|383,1,0,0,0,0,1,6|384,2,0,0,0,0,1,17|385,4,0,0,0,0,1,16|386,4,0,0,0,0,1,8|387,1,0,0,0,0,1,1|388,1,0,0,0,0,1,1|389,5,0,0,0,0,1,8|390,1,0,0,0,0,1,4|391,5,0,0,0,0,1,8|392,3,0,0,0,0,1,13|393,5,0,0,0,0,1,12|394,2,0,0,0,0,1,2|395,4,0,0,0,0,1,16|396,5,0,0,0,0,1,7|397,2,0,0,0,0,1,1|398,5,0,0,0,0,1,5|399,4,0,0,0,0,1,17|400,4,0,0,0,0,1,6|401,4,0,0,0,0,1,9|402,3,0,0,0,0,1,14|403,1,0,0,0,0,1,3|404,2,0,0,0,0,1,17|405,5,0,0,0,0,1,16|406,4,0,0,0,0,1,9|407,3,0,0,0,0,1,4|408,3,0,0,0,0,1,11|409,3,0,0,0,0,1,8|410,2,0,0,0,0,1,8|411,1,0,0,0,0,1,9|412,3,0,0,0,0,1,10|413,5,0,0,0,0,1,2|414,4,0,0,0,0,1,16|415,1,0,0,0,0,1,14|416,5,0,0,0,0,1,1|417,5,0,0,0,0,1,10|418,4,0,0,0,0,1,12|419,4,0,0,0,0,1,1|420,5,0,0,0,0,1,8|421,5,0,0,0,0,1,4|422,5,0,0,0,0,1,6|423,5,0,0,0,0,1,5|424,3,0,0,0,0,1,8|425,1,0,0,0,0,1,4|426,2,0,0,0,0,1,10|427,3,0,0,0,0,1,15|428,3,0,0,0,0,1,14|429,3,0,0,0,0,1,16|430,5,0,0,0,0,1,5|431,1,0,0,0,0,1,3|432,4,0,0,0,0,1,14|433,5,0,0,0,0,1,16|434,1,0,0,0,0,1,15|435,2,0,0,0,0,1,16|436,2,0,0,0,0,1,12|437,1,0,0,0,0,1,10|438,1,0,0,0,0,1,3|439,3,0,0,0,0,1,7|440,1,0,0,0,0,1,18|441,5,0,0,0,0,1,3|442,4,0,0,0,0,1,4|443,2,0,0,0,0,1,10|444,2,0,0,0,0,1,14|445,3,0,0,0,0,1,9|446,4,0,0,0,0,1,10|447,3,0,0,0,0,1,17|448,2,0,0,0,0,1,10|449,5,0,0,0,0,1,5|450,3,0,0,0,0,1,3|451,4,0,0,0,0,1,14|452,1,0,0,0,0,1,17|453,3,0,0,0,0,1,8|454,5,0,0,0,0,1,3|455,4,0,0,0,0,1,6|456,1,0,0,0,0,1,2|457,1,0,0,0,0,1,7|458,4,0,0,0,0,1,13|459,5,0,0,0,0,1,11|460,1,0,0,0,0,1,7|461,1,0,0,0,0,1,15|462,5,0,0,0,0,1,17|463,2,0,0,0,0,1,5|464,3,0,0,0,0,1,16|465,5,0,0,0,0,1,3|466,3,0,0,0,0,1,13|467,4,0,0,0,0,1,1|468,4,0,0,0,0,1,18|469,5,0,0,0,0,1,5|470,3,0,0,0,0,1,14|471,5,0,0,0,0,1,6|472,3,0,0,0,0,1,5|473,1,0,0,0,0,1,10|474,3,0,0,0,0,1,7|475,2,0,0,0,0,1,18|476,4,0,0,0,0,1,7|477,2,0,0,0,0,1,10|478,3,0,0,0,0,1,2|479,4,0,0,0,0,1,10|480,4,0,0,0,0,1,13|481,5,0,0,0,0,1,11|482,5,0,0,0,0,1,18|483,4,0,0,0,0,1,14|484,2,0,0,0,0,1,3|485,5,0,0,0,0,1,2|486,2,0,0,0,0,1,1|487,5,0,0,0,0,1,12|488,4,0,0,0,0,1,11|489,5,0,0,0,0,1,5|490,4,0,0,0,0,1,5|491,4,0,0,0,0,1,13|492,3,0,0,0,0,1,18|493,4,0,0,0,0,1,12|494,1,0,0,0,0,1,1|495,1,0,0,0,0,1,10|496,4,0,0,0,0,1,14|497,4,0,0,0,0,1,13|498,2,0,0,0,0,1,3|499,3,0,0,0,0,1,5|500,4,0,0,0,0,1,10|501,4,0,0,0,0,1,14|502,2,0,0,0,0,1,10|503,2,0,0,0,0,1,5|504,1,0,0,0,0,1,2|505,3,0,0,0,0,1,6|506,5,0,0,0,0,1,1|507,5,0,0,0,0,1,17|508,1,0,0,0,0,1,4|509,2,0,0,0,0,1,11|510,1,0,0,0,0,1,6|511,4,0,0,0,0,1,2|512,5,0,0,0,0,1,7|513,4,0,0,0,0,1,6|514,1,0,0,0,0,1,4|515,4,0,0,0,0,1,2|516,3,0,0,0,0,1,1|517,3,0,0,0,0,1,14|518,3,0,0,0,0,1,6|519,5,0,0,0,0,1,15|520,3,0,0,0,0,1,16|521,2,0,0,0,0,1,15|522,5,0,0,0,0,1,15|523,4,0,0,0,0,1,17|524,5,0,0,0,0,1,16|525,4,0,0,0,0,1,12|526,1,0,0,0,0,1,1|527,1,0,0,0,0,1,10|528,2,0,0,0,0,1,15|529,5,0,0,0,0,1,15|530,5,0,0,0,0,1,7|531,1,0,0,0,0,1,5|532,3,0,0,0,0,1,12|533,1,0,0,0,0,1,5|534,4,0,0,0,0,1,9|535,5,0,0,0,0,1,17|536,5,0,0,0,0,1,15|537,3,0,0,0,0,1,11|538,1,0,0,0,0,1,12|539,3,0,0,0,0,1,16|540,4,0,0,0,0,1,8|541,4,0,0,0,0,1,2|542,3,0,0,0,0,1,4|543,4,0,0,0,0,1,12|544,2,0,0,0,0,1,6|545,3,0,0,0,0,1,14|546,2,0,0,0,0,1,8|547,1,0,0,0,0,1,14|548,2,0,0,0,0,1,5|549,3,0,0,0,0,1,7|550,2,0,0,0,0,1,8|551,4,0,0,0,0,1,13|552,1,0,0,0,0,1,13|553,3,0,0,0,0,1,2|554,3,0,0,0,0,1,14|555,5,0,0,0,0,1,11|556,3,0,0,0,0,1,15|557,5,0,0,0,0,1,15|558,1,0,0,0,0,1,16|559,3,0,0,0,0,1,16|560,2,0,0,0,0,1,6|561,2,0,0,0,0,1,13|562,2,0,0,0,0,1,18|563,2,0,0,0,0,1,5|564,3,0,0,0,0,1,6|565,3,0,0,0,0,1,2|566,3,0,0,0,0,1,6|567,4,0,0,0,0,1,18|568,3,0,0,0,0,1,2|569,4,0,0,0,0,1,16|570,5,0,0,0,0,1,15|571,1,0,0,0,0,1,5|572,4,0,0,0,0,1,6|573,4,0,0,0,0,1,13|574,2,0,0,0,0,1,13|575,2,0,0,0,0,1,10|576,2,0,0,0,0,1,10|577,1,0,0,0,0,1,3|578,4,0,0,0,0,1,11|579,2,0,0,0,0,1,15|580,3,0,0,0,0,1,9|581,1,0,0,0,0,1,8|582,3,0,0,0,0,1,2|583,2,0,0,0,0,1,13|584,3,0,0,0,0,1,9|585,2,0,0,0,0,1,4|586,4,0,0,0,0,1,15|587,5,0,0,0,0,1,5|588,5,0,0,0,0,1,3|589,1,0,0,0,0,1,3|590,4,0,0,0,0,1,2|591,1,0,0,0,0,1,10|592,3,0,0,0,0,1,7|593,1,0,0,0,0,1,4|594,4,0,0,0,0,1,5|595,4,0,0,0,0,1,3|596,4,0,0,0,0,1,4|597,2,0,0,0,0,1,3|598,1,0,0,0,0,1,15|599,2,0,0,0,0,1,7|600,4,0,0,0,0,1,14|601,2,0,0,0,0,1,4|602,3,0,0,0,0,1,9|603,2,0,0,0,0,1,17|604,3,0,0,0,0,1,11|605,5,0,0,0,0,1,6|606,4,0,0,0,0,1,6|607,3,0,0,0,0,1,8|608,2,0,0,0,0,1,1|609,2,0,0,0,0,1,3|610,4,0,0,0,0,1,18|611,5,0,0,0,0,1,17|612,3,0,0,0,0,1,4|613,5,0,0,0,0,1,12|614,3,0,0,0,0,1,7|615,1,0,0,0,0,1,7|616,3,0,0,0,0,1,5|617,2,0,0,0,0,1,17|618,2,0,0,0,0,1,6|619,2,0,0,0,0,1,8|620,3,0,0,0,0,1,2|621,2,0,0,0,0,1,11|622,4,0,0,0,0,1,12|623,5,0,0,0,0,1,16|624,5,0,0,0,0,1,8|625,5,0,0,0,0,1,9|626,5,0,0,0,0,1,14|627,4,0,0,0,0,1,5|628,3,0,0,0,0,1,6|629,5,0,0,0,0,1,11|630,2,0,0,0,0,1,2|631,2,0,0,0,0,1,10|632,2,0,0,0,0,1,5|633,2,0,0,0,0,1,4|634,2,0,0,0,0,1,7|635,3,0,0,0,0,1,2|636,1,0,0,0,0,1,11|637,1,0,0,0,0,1,1|638,4,0,0,0,0,1,2|639,2,0,0,0,0,1,2|640,2,0,0,0,0,1,5|641,4,0,0,0,0,1,10|642,4,0,0,0,0,1,17|643,1,0,0,0,0,1,11|644,1,0,0,0,0,1,17|645,2,0,0,0,0,1,15|646,3,0,0,0,0,1,11|647,2,0,0,0,0,1,5|648,3,0,0,0,0,1,5|649,4,0,0,0,0,1,3|650,4,0,0,0,0,1,3|651,4,0,0,0,0,1,10|652,2,0,0,0,0,1,7|653,3,0,0,0,0,1,3|654,2,0,0,0,0,1,16|655,5,0,0,0,0,1,1|656,4,0,0,0,0,1,8|657,1,0,0,0,0,1,14|658,1,0,0,0,0,1,7|659,3,0,0,0,0,1,12|660,5,0,0,0,0,1,6|661,4,0,0,0,0,1,1|662,2,0,0,0,0,1,16|663,1,0,0,0,0,1,14|664,5,0,0,0,0,1,17|665,1,0,0,0,0,1,17|666,1,0,0,0,0,1,7|667,1,0,0,0,0,1,18|668,4,0,0,0,0,1,15|669,1,0,0,0,0,1,3|670,1,0,0,0,0,1,13|671,5,0,0,0,0,1,18|672,3,0,0,0,0,1,5|673,1,0,0,0,0,1,16|674,5,0,0,0,0,1,12|675,3,0,0,0,0,1,18|676,4,0,0,0,0,1,4|677,3,0,0,0,0,1,4|678,4,0,0,0,0,1,6|679,5,0,0,0,0,1,10|680,3,0,0,0,0,1,4|681,2,0,0,0,0,1,11|682,5,0,0,0,0,1,4|683,4,0,0,0,0,1,3|684,5,0,0,0,0,1,5|685,2,0,0,0,0,1,12|686,2,0,0,0,0,1,12|687,3,0,0,0,0,1,17|688,3,0,0,0,0,1,2|689,4,0,0,0,0,1,1|690,4,0,0,0,0,1,16|691,5,0,0,0,0,1,17|692,2,0,0,0,0,1,5|693,5,0,0,0,0,1,4|694,3,0,0,0,0,1,3|695,4,0,0,0,0,1,8|696,4,0,0,0,0,1,12|697,5,0,0,0,0,1,14|698,4,0,0,0,0,1,18|699,1,0,0,0,0,1,9|700,2,0,0,0,0,1,13|701,2,0,0,0,0,1,15|702,4,0,0,0,0,1,4|703,1,0,0,0,0,1,8|704,1,0,0,0,0,1,18|705,2,0,0,0,0,1,3|706,4,0,0,0,0,1,2|707,3,0,0,0,0,1,13|708,4,0,0,0,0,1,11|709,2,0,0,0,0,1,7|710,3,0,0,0,0,1,16|711,1,0,0,0,0,1,17|712,3,0,0,0,0,1,1|713,4,0,0,0,0,1,14|714,3,0,0,0,0,1,4|715,3,0,0,0,0,1,6|716,1,0,0,0,0,1,8|717,2,0,0,0,0,1,7|718,5,0,0,0,0,1,13|719,1,0,0,0,0,1,16|720,2,0,0,0,0,1,6|721,2,0,0,0,0,1,10|722,5,0,0,0,0,1,4|723,2,0,0,0,0,1,16|724,2,0,0,0,0,1,13|725,2,0,0,0,0,1,4|726,4,0,0,0,0,1,7|727,1,0,0,0,0,1,16|728,5,0,0,0,0,1,14|729,4,0,0,0,0,1,2|730,5,0,0,0,0,1,4|731,3,0,0,0,0,1,18|732,5,0,0,0,0,1,13|733,2,0,0,0,0,1,7|734,2,0,0,0,0,1,2|735,5,0,0,0,0,1,3|736,5,0,0,0,0,1,10|737,2,0,0,0,0,1,8|738,2,0,0,0,0,1,14|739,1,0,0,0,0,1,1|740,4,0,0,0,0,1,8|741,1,0,0,0,0,1,6|742,5,0,0,0,0,1,15|743,4,0,0,0,0,1,15|744,2,0,0,0,0,1,12|745,2,0,0,0,0,1,12|746,5,0,0,0,0,1,8|747,5,0,0,0,0,1,8|748,3,0,0,0,0,1,13|749,3,0,0,0,0,1,14|750,4,0,0,0,0,1,16|751,1,0,0,0,0,1,2|752,5,0,0,0,0,1,16|753,5,0,0,0,0,1,9|754,4,0,0,0,0,1,1|755,2,0,0,0,0,1,7|756,4,0,0,0,0,1,7|];
